%NProcShared=20
%mem=50GB
%chk=*maybe*.chk

#p PBEH1PBE/def2svp opt  integral=superfinegrid freq

title

0  1